N = 10;
lengths = [290, 170, 165, 295, 220, 90, 290, 195, 145, 140];
widths = [230, 130, 125, 295, 150, 70, 130, 140, 95, 120];
heights = [40, 30, 50, 75, 60, 20, 90, 45, 45, 65];
reds = [197, 132, 155, 111, 71, 75, 37, 51, 161, 226];
greens = [215, 248, 244, 71, 48, 158, 169, 181, 104, 133];
blues = [20, 207, 183, 144, 128, 50, 241, 222, 244, 31];
